50
    1    37    37
    2    71    71
    3    53    53
    4    76    76
    5    75    75
    6    77    77
    7    72    72
    8     5     5
    9    65    65
   10    91    91
   11    19    19
   12    82    82
   13    54    54
   14    71    71
   15    57    57
   16    33    33
   17    26    26
   18    60    60
   19    67    67
   20    32    32
   21    57    57
   22    48    48
   23    68    68
   24    36    36
   25    53    53
   26    80    80
   27    17    17
   28    59    59
   29    94    94
   30    68    68
   31    14    14
   32    49    49
   33    58    58
   34    79    79
   35    93    93
   36    47    47
   37    38    38
   38    96    96
   39    15    15
   40    51    51
   41    70    70
   42    43    43
   43    45    45
   44    32    32
   45     5     5
   46    89    89
   47    32    32
   48    73    73
   49    38    38
   50    90    90
1840
